p cnf 306 675
1 2 5 6 7 8 10 11 13 14 17 0
18 19 20 23 24 25 29 30 34 0
36 37 38 41 43 47 48 50 0
52 53 54 55 63 64 65 66 0
69 71 73 75 77 79 82 83 0
87 88 90 91 92 93 97 99 100 102 0
103 106 108 109 112 116 117 118 119 0
120 123 124 125 127 130 131 132 133 136 0
137 138 141 144 145 146 148 149 0
154 156 158 163 165 166 167 170 0
172 173 174 178 179 181 183 0
189 193 197 198 199 201 0
207 208 213 217 218 219 220 0
222 223 224 228 232 234 235 237 0
240 241 242 243 245 246 250 251 253 254 255 0
256 262 267 270 271 0
273 274 275 277 279 280 285 288 289 0
290 291 292 295 296 298 299 301 303 304 305 0
-1 -18 0
-1 -52 0
-1 -69 0
-1 -103 0
-1 -120 0
-1 -137 0
-1 -154 0
-1 -222 0
-1 -256 0
-1 -273 0
-1 -290 0
-18 -52 0
-18 -69 0
-18 -103 0
-18 -120 0
-18 -137 0
-18 -154 0
-18 -222 0
-18 -256 0
-18 -273 0
-18 -290 0
-52 -69 0
-52 -103 0
-52 -120 0
-52 -137 0
-52 -154 0
-52 -222 0
-52 -256 0
-52 -273 0
-52 -290 0
-69 -103 0
-69 -120 0
-69 -137 0
-69 -154 0
-69 -222 0
-69 -256 0
-69 -273 0
-69 -290 0
-103 -120 0
-103 -137 0
-103 -154 0
-103 -222 0
-103 -256 0
-103 -273 0
-103 -290 0
-120 -137 0
-120 -154 0
-120 -222 0
-120 -256 0
-120 -273 0
-120 -290 0
-137 -154 0
-137 -222 0
-137 -256 0
-137 -273 0
-137 -290 0
-154 -222 0
-154 -256 0
-154 -273 0
-154 -290 0
-222 -256 0
-222 -273 0
-222 -290 0
-256 -273 0
-256 -290 0
-273 -290 0
-2 -19 0
-2 -36 0
-2 -53 0
-2 -87 0
-2 -138 0
-2 -172 0
-2 -189 0
-2 -223 0
-2 -240 0
-2 -274 0
-2 -291 0
-19 -36 0
-19 -53 0
-19 -87 0
-19 -138 0
-19 -172 0
-19 -189 0
-19 -223 0
-19 -240 0
-19 -274 0
-19 -291 0
-36 -53 0
-36 -87 0
-36 -138 0
-36 -172 0
-36 -189 0
-36 -223 0
-36 -240 0
-36 -274 0
-36 -291 0
-53 -87 0
-53 -138 0
-53 -172 0
-53 -189 0
-53 -223 0
-53 -240 0
-53 -274 0
-53 -291 0
-87 -138 0
-87 -172 0
-87 -189 0
-87 -223 0
-87 -240 0
-87 -274 0
-87 -291 0
-138 -172 0
-138 -189 0
-138 -223 0
-138 -240 0
-138 -274 0
-138 -291 0
-172 -189 0
-172 -223 0
-172 -240 0
-172 -274 0
-172 -291 0
-189 -223 0
-189 -240 0
-189 -274 0
-189 -291 0
-223 -240 0
-223 -274 0
-223 -291 0
-240 -274 0
-240 -291 0
-274 -291 0
-20 -37 0
-20 -54 0
-20 -71 0
-20 -88 0
-20 -156 0
-20 -173 0
-20 -207 0
-20 -224 0
-20 -241 0
-20 -275 0
-20 -292 0
-37 -54 0
-37 -71 0
-37 -88 0
-37 -156 0
-37 -173 0
-37 -207 0
-37 -224 0
-37 -241 0
-37 -275 0
-37 -292 0
-54 -71 0
-54 -88 0
-54 -156 0
-54 -173 0
-54 -207 0
-54 -224 0
-54 -241 0
-54 -275 0
-54 -292 0
-71 -88 0
-71 -156 0
-71 -173 0
-71 -207 0
-71 -224 0
-71 -241 0
-71 -275 0
-71 -292 0
-88 -156 0
-88 -173 0
-88 -207 0
-88 -224 0
-88 -241 0
-88 -275 0
-88 -292 0
-156 -173 0
-156 -207 0
-156 -224 0
-156 -241 0
-156 -275 0
-156 -292 0
-173 -207 0
-173 -224 0
-173 -241 0
-173 -275 0
-173 -292 0
-207 -224 0
-207 -241 0
-207 -275 0
-207 -292 0
-224 -241 0
-224 -275 0
-224 -292 0
-241 -275 0
-241 -292 0
-275 -292 0
-38 -55 0
-38 -106 0
-38 -123 0
-38 -174 0
-38 -208 0
-38 -242 0
-55 -106 0
-55 -123 0
-55 -174 0
-55 -208 0
-55 -242 0
-106 -123 0
-106 -174 0
-106 -208 0
-106 -242 0
-123 -174 0
-123 -208 0
-123 -242 0
-174 -208 0
-174 -242 0
-208 -242 0
-5 -73 0
-5 -90 0
-5 -124 0
-5 -141 0
-5 -158 0
-5 -243 0
-5 -277 0
-73 -90 0
-73 -124 0
-73 -141 0
-73 -158 0
-73 -243 0
-73 -277 0
-90 -124 0
-90 -141 0
-90 -158 0
-90 -243 0
-90 -277 0
-124 -141 0
-124 -158 0
-124 -243 0
-124 -277 0
-141 -158 0
-141 -243 0
-141 -277 0
-158 -243 0
-158 -277 0
-243 -277 0
-6 -23 0
-6 -91 0
-6 -108 0
-6 -125 0
-6 -193 0
-6 -295 0
-23 -91 0
-23 -108 0
-23 -125 0
-23 -193 0
-23 -295 0
-91 -108 0
-91 -125 0
-91 -193 0
-91 -295 0
-108 -125 0
-108 -193 0
-108 -295 0
-125 -193 0
-125 -295 0
-193 -295 0
-7 -24 0
-7 -41 0
-7 -75 0
-7 -92 0
-7 -109 0
-7 -228 0
-7 -245 0
-7 -262 0
-7 -279 0
-7 -296 0
-24 -41 0
-24 -75 0
-24 -92 0
-24 -109 0
-24 -228 0
-24 -245 0
-24 -262 0
-24 -279 0
-24 -296 0
-41 -75 0
-41 -92 0
-41 -109 0
-41 -228 0
-41 -245 0
-41 -262 0
-41 -279 0
-41 -296 0
-75 -92 0
-75 -109 0
-75 -228 0
-75 -245 0
-75 -262 0
-75 -279 0
-75 -296 0
-92 -109 0
-92 -228 0
-92 -245 0
-92 -262 0
-92 -279 0
-92 -296 0
-109 -228 0
-109 -245 0
-109 -262 0
-109 -279 0
-109 -296 0
-228 -245 0
-228 -262 0
-228 -279 0
-228 -296 0
-245 -262 0
-245 -279 0
-245 -296 0
-262 -279 0
-262 -296 0
-279 -296 0
-8 -25 0
-8 -93 0
-8 -127 0
-8 -144 0
-8 -178 0
-8 -246 0
-8 -280 0
-25 -93 0
-25 -127 0
-25 -144 0
-25 -178 0
-25 -246 0
-25 -280 0
-93 -127 0
-93 -144 0
-93 -178 0
-93 -246 0
-93 -280 0
-127 -144 0
-127 -178 0
-127 -246 0
-127 -280 0
-144 -178 0
-144 -246 0
-144 -280 0
-178 -246 0
-178 -280 0
-246 -280 0
-43 -77 0
-43 -145 0
-43 -179 0
-43 -213 0
-43 -298 0
-77 -145 0
-77 -179 0
-77 -213 0
-77 -298 0
-145 -179 0
-145 -213 0
-145 -298 0
-179 -213 0
-179 -298 0
-213 -298 0
-10 -112 0
-10 -146 0
-10 -163 0
-10 -197 0
-10 -299 0
-112 -146 0
-112 -163 0
-112 -197 0
-112 -299 0
-146 -163 0
-146 -197 0
-146 -299 0
-163 -197 0
-163 -299 0
-197 -299 0
-11 -79 0
-11 -130 0
-11 -181 0
-11 -198 0
-11 -232 0
-79 -130 0
-79 -181 0
-79 -198 0
-79 -232 0
-130 -181 0
-130 -198 0
-130 -232 0
-181 -198 0
-181 -232 0
-198 -232 0
-29 -63 0
-29 -97 0
-29 -131 0
-29 -148 0
-29 -165 0
-29 -199 0
-29 -250 0
-29 -267 0
-29 -301 0
-63 -97 0
-63 -131 0
-63 -148 0
-63 -165 0
-63 -199 0
-63 -250 0
-63 -267 0
-63 -301 0
-97 -131 0
-97 -148 0
-97 -165 0
-97 -199 0
-97 -250 0
-97 -267 0
-97 -301 0
-131 -148 0
-131 -165 0
-131 -199 0
-131 -250 0
-131 -267 0
-131 -301 0
-148 -165 0
-148 -199 0
-148 -250 0
-148 -267 0
-148 -301 0
-165 -199 0
-165 -250 0
-165 -267 0
-165 -301 0
-199 -250 0
-199 -267 0
-199 -301 0
-250 -267 0
-250 -301 0
-267 -301 0
-13 -30 0
-13 -47 0
-13 -64 0
-13 -132 0
-13 -149 0
-13 -166 0
-13 -183 0
-13 -217 0
-13 -234 0
-13 -251 0
-13 -285 0
-30 -47 0
-30 -64 0
-30 -132 0
-30 -149 0
-30 -166 0
-30 -183 0
-30 -217 0
-30 -234 0
-30 -251 0
-30 -285 0
-47 -64 0
-47 -132 0
-47 -149 0
-47 -166 0
-47 -183 0
-47 -217 0
-47 -234 0
-47 -251 0
-47 -285 0
-64 -132 0
-64 -149 0
-64 -166 0
-64 -183 0
-64 -217 0
-64 -234 0
-64 -251 0
-64 -285 0
-132 -149 0
-132 -166 0
-132 -183 0
-132 -217 0
-132 -234 0
-132 -251 0
-132 -285 0
-149 -166 0
-149 -183 0
-149 -217 0
-149 -234 0
-149 -251 0
-149 -285 0
-166 -183 0
-166 -217 0
-166 -234 0
-166 -251 0
-166 -285 0
-183 -217 0
-183 -234 0
-183 -251 0
-183 -285 0
-217 -234 0
-217 -251 0
-217 -285 0
-234 -251 0
-234 -285 0
-251 -285 0
-14 -48 0
-14 -65 0
-14 -82 0
-14 -99 0
-14 -116 0
-14 -133 0
-14 -167 0
-14 -201 0
-14 -218 0
-14 -235 0
-14 -303 0
-48 -65 0
-48 -82 0
-48 -99 0
-48 -116 0
-48 -133 0
-48 -167 0
-48 -201 0
-48 -218 0
-48 -235 0
-48 -303 0
-65 -82 0
-65 -99 0
-65 -116 0
-65 -133 0
-65 -167 0
-65 -201 0
-65 -218 0
-65 -235 0
-65 -303 0
-82 -99 0
-82 -116 0
-82 -133 0
-82 -167 0
-82 -201 0
-82 -218 0
-82 -235 0
-82 -303 0
-99 -116 0
-99 -133 0
-99 -167 0
-99 -201 0
-99 -218 0
-99 -235 0
-99 -303 0
-116 -133 0
-116 -167 0
-116 -201 0
-116 -218 0
-116 -235 0
-116 -303 0
-133 -167 0
-133 -201 0
-133 -218 0
-133 -235 0
-133 -303 0
-167 -201 0
-167 -218 0
-167 -235 0
-167 -303 0
-201 -218 0
-201 -235 0
-201 -303 0
-218 -235 0
-218 -303 0
-235 -303 0
-66 -83 0
-66 -100 0
-66 -117 0
-66 -219 0
-66 -253 0
-66 -270 0
-66 -304 0
-83 -100 0
-83 -117 0
-83 -219 0
-83 -253 0
-83 -270 0
-83 -304 0
-100 -117 0
-100 -219 0
-100 -253 0
-100 -270 0
-100 -304 0
-117 -219 0
-117 -253 0
-117 -270 0
-117 -304 0
-219 -253 0
-219 -270 0
-219 -304 0
-253 -270 0
-253 -304 0
-270 -304 0
-50 -118 0
-50 -220 0
-50 -237 0
-50 -254 0
-50 -271 0
-50 -288 0
-50 -305 0
-118 -220 0
-118 -237 0
-118 -254 0
-118 -271 0
-118 -288 0
-118 -305 0
-220 -237 0
-220 -254 0
-220 -271 0
-220 -288 0
-220 -305 0
-237 -254 0
-237 -271 0
-237 -288 0
-237 -305 0
-254 -271 0
-254 -288 0
-254 -305 0
-271 -288 0
-271 -305 0
-288 -305 0
-17 -34 0
-17 -102 0
-17 -119 0
-17 -136 0
-17 -170 0
-17 -255 0
-17 -289 0
-34 -102 0
-34 -119 0
-34 -136 0
-34 -170 0
-34 -255 0
-34 -289 0
-102 -119 0
-102 -136 0
-102 -170 0
-102 -255 0
-102 -289 0
-119 -136 0
-119 -170 0
-119 -255 0
-119 -289 0
-136 -170 0
-136 -255 0
-136 -289 0
-170 -255 0
-170 -289 0
-255 -289 0
